
  12    4
  10   10   10   10

   0   0   0   0   0   3 2 3 4 
  10  10  10  10  10   3 11 9 5 
   4  10  10  10  10   2 8 6 
   5  10  10  10  10   1 5 
   6  10  10  10  10   2 8 7 
  10  10  10  10  10   1 7 
   2  10  10  10  10   1 10 
   6  10  10  10  10   1 10 
   9  10  10  10  10   1 10 
   8  10  10  10  10   1 12
   8  10  10  10  10   1 12
   0   0   0   0   0   0 
